7792736498387231213506,12,1,2,03,11,1,2,03,3,1,2,010,5,1,2,04,10,1,2,03,12,1,2,012,12,1,2,08,1,1,2,06,3,1,2,013,5,1,2,010,3,1,2,01,5,1,2,010,4,1,2,04,5,1,2,011,11,1,2,02,13,1,2,011,2,1,2,05,11,1,2,012,5,1,2,03,12,1,2,04,6,1,2,014,7,1,2,012,1,1,2,01,15,1,2,09,9,1,2,013,13,1,2,012,14,1,2,02,14,1,2,03,5,1,2,04,15,1,2,05,2,1,2,015,1,1,2,02,15,1,2,08,3,1,2,03,10,1,2,08,9,1,2,09,8,1,2,014,2,1,2,01,14,1,2,015,13,1,2,014,14,1,2,010,11,1,2,04,3,1,2,013,11,1,2,04,5,1,2,03,10,1,2,011,7,1,2,010,3,1,2,03,9,1,2,08,8,1,2,0